;; Mutation-Based Equivalence Benchmark
;; Source:     AutomatArk / instance11735.smt2
;; Mutations:  bound_upper_inc, opt_to_required
;; Status:     sat
;;
;; Original regex vs mutated regex
;; Equivalence check: unsat ⟺ L(R1) = L(R2)

(set-info :smt-lib-version 2.6)
(set-info :category "mutation")
(set-info :status sat)
(set-logic QF_S)


;; R1: original
;; R2: mutated (bound_upper_inc, opt_to_required)
(assert
  (not
    (=
      (re.++ (str.to_re "/") (re.opt (re.union (str.to_re "-") (str.to_re "+"))) (re.opt (re.union (re.* (re.range "0" "9")) (re.++ (re.opt ((_ re.loop 1 3) (re.range "0" "9"))) (str.to_re ",") (re.* (re.++ ((_ re.loop 3 3) (re.range "0" "9")) (str.to_re ","))) ((_ re.loop 3 3) (re.range "0" "9"))))) (re.opt (re.++ (str.to_re ".") (re.* (re.range "0" "9")))) (re.opt (re.++ (re.union (str.to_re "e") (str.to_re "E")) (re.union (str.to_re "-") (str.to_re "+")) (re.+ (re.range "0" "9")))) (str.to_re "/\u{a}"))
      (re.++ (str.to_re "/") (re.opt (re.union (str.to_re "-") (str.to_re "+"))) (re.opt (re.union (re.* (re.range "0" "9")) (re.++ (_ re.loop 1 3) (re.range "0" "9")) (str.to_re ",") (re.* (re.++ ((_ re.loop 3 4) (re.range "0" "9")) (str.to_re ","))) ((_ re.loop 3 3) (re.range "0" "9"))))))))

(check-sat)
(exit)
